100
500
399
399
394
393
389
386
386
385
383
378
374
372
372
369
368
360
360
357
353
337
334
325
325
323
316
307
306
298
294
293
292
284
283
274
272
272
267
265
264
254
253
236
223
221
217
215
212
204
199
197
196
192
191
190
190
187
183
180
179
176
174
170
166
163
163
162
160
160
158
152
152
149
146
136
133
133
132
127
117
116
116
115
111
105
102
99
87
86
83
79
75
74
72
69
63
58
54
51
50
50
